c *********************************
c * Circuit generated by BenCGen
c *
c * Parity_479
c *
c * Ports with 1 gate(s): 1
c * Ports with 2 gate(s): 479
c * Total gates: 480
c *********************************
p cnf 959 1917
1 482 0
-1 -482 0
1 -481 0
482 -481 0
-1 -482 481 0
1 2 -483 0
-1 2 483 0
1 -2 483 0
-1 -2 -483 0
3 4 -484 0
-3 4 484 0
3 -4 484 0
-3 -4 -484 0
5 6 -485 0
-5 6 485 0
5 -6 485 0
-5 -6 -485 0
7 8 -486 0
-7 8 486 0
7 -8 486 0
-7 -8 -486 0
9 10 -487 0
-9 10 487 0
9 -10 487 0
-9 -10 -487 0
11 12 -488 0
-11 12 488 0
11 -12 488 0
-11 -12 -488 0
13 14 -489 0
-13 14 489 0
13 -14 489 0
-13 -14 -489 0
15 16 -490 0
-15 16 490 0
15 -16 490 0
-15 -16 -490 0
17 18 -491 0
-17 18 491 0
17 -18 491 0
-17 -18 -491 0
19 20 -492 0
-19 20 492 0
19 -20 492 0
-19 -20 -492 0
21 22 -493 0
-21 22 493 0
21 -22 493 0
-21 -22 -493 0
23 24 -494 0
-23 24 494 0
23 -24 494 0
-23 -24 -494 0
25 26 -495 0
-25 26 495 0
25 -26 495 0
-25 -26 -495 0
27 28 -496 0
-27 28 496 0
27 -28 496 0
-27 -28 -496 0
29 30 -497 0
-29 30 497 0
29 -30 497 0
-29 -30 -497 0
31 32 -498 0
-31 32 498 0
31 -32 498 0
-31 -32 -498 0
33 34 -499 0
-33 34 499 0
33 -34 499 0
-33 -34 -499 0
35 36 -500 0
-35 36 500 0
35 -36 500 0
-35 -36 -500 0
37 38 -501 0
-37 38 501 0
37 -38 501 0
-37 -38 -501 0
39 40 -502 0
-39 40 502 0
39 -40 502 0
-39 -40 -502 0
41 42 -503 0
-41 42 503 0
41 -42 503 0
-41 -42 -503 0
43 44 -504 0
-43 44 504 0
43 -44 504 0
-43 -44 -504 0
45 46 -505 0
-45 46 505 0
45 -46 505 0
-45 -46 -505 0
47 48 -506 0
-47 48 506 0
47 -48 506 0
-47 -48 -506 0
49 50 -507 0
-49 50 507 0
49 -50 507 0
-49 -50 -507 0
51 52 -508 0
-51 52 508 0
51 -52 508 0
-51 -52 -508 0
53 54 -509 0
-53 54 509 0
53 -54 509 0
-53 -54 -509 0
55 56 -510 0
-55 56 510 0
55 -56 510 0
-55 -56 -510 0
57 58 -511 0
-57 58 511 0
57 -58 511 0
-57 -58 -511 0
59 60 -512 0
-59 60 512 0
59 -60 512 0
-59 -60 -512 0
61 62 -513 0
-61 62 513 0
61 -62 513 0
-61 -62 -513 0
63 64 -514 0
-63 64 514 0
63 -64 514 0
-63 -64 -514 0
65 66 -515 0
-65 66 515 0
65 -66 515 0
-65 -66 -515 0
67 68 -516 0
-67 68 516 0
67 -68 516 0
-67 -68 -516 0
69 70 -517 0
-69 70 517 0
69 -70 517 0
-69 -70 -517 0
71 72 -518 0
-71 72 518 0
71 -72 518 0
-71 -72 -518 0
73 74 -519 0
-73 74 519 0
73 -74 519 0
-73 -74 -519 0
75 76 -520 0
-75 76 520 0
75 -76 520 0
-75 -76 -520 0
77 78 -521 0
-77 78 521 0
77 -78 521 0
-77 -78 -521 0
79 80 -522 0
-79 80 522 0
79 -80 522 0
-79 -80 -522 0
81 82 -523 0
-81 82 523 0
81 -82 523 0
-81 -82 -523 0
83 84 -524 0
-83 84 524 0
83 -84 524 0
-83 -84 -524 0
85 86 -525 0
-85 86 525 0
85 -86 525 0
-85 -86 -525 0
87 88 -526 0
-87 88 526 0
87 -88 526 0
-87 -88 -526 0
89 90 -527 0
-89 90 527 0
89 -90 527 0
-89 -90 -527 0
91 92 -528 0
-91 92 528 0
91 -92 528 0
-91 -92 -528 0
93 94 -529 0
-93 94 529 0
93 -94 529 0
-93 -94 -529 0
95 96 -530 0
-95 96 530 0
95 -96 530 0
-95 -96 -530 0
97 98 -531 0
-97 98 531 0
97 -98 531 0
-97 -98 -531 0
99 100 -532 0
-99 100 532 0
99 -100 532 0
-99 -100 -532 0
101 102 -533 0
-101 102 533 0
101 -102 533 0
-101 -102 -533 0
103 104 -534 0
-103 104 534 0
103 -104 534 0
-103 -104 -534 0
105 106 -535 0
-105 106 535 0
105 -106 535 0
-105 -106 -535 0
107 108 -536 0
-107 108 536 0
107 -108 536 0
-107 -108 -536 0
109 110 -537 0
-109 110 537 0
109 -110 537 0
-109 -110 -537 0
111 112 -538 0
-111 112 538 0
111 -112 538 0
-111 -112 -538 0
113 114 -539 0
-113 114 539 0
113 -114 539 0
-113 -114 -539 0
115 116 -540 0
-115 116 540 0
115 -116 540 0
-115 -116 -540 0
117 118 -541 0
-117 118 541 0
117 -118 541 0
-117 -118 -541 0
119 120 -542 0
-119 120 542 0
119 -120 542 0
-119 -120 -542 0
121 122 -543 0
-121 122 543 0
121 -122 543 0
-121 -122 -543 0
123 124 -544 0
-123 124 544 0
123 -124 544 0
-123 -124 -544 0
125 126 -545 0
-125 126 545 0
125 -126 545 0
-125 -126 -545 0
127 128 -546 0
-127 128 546 0
127 -128 546 0
-127 -128 -546 0
129 130 -547 0
-129 130 547 0
129 -130 547 0
-129 -130 -547 0
131 132 -548 0
-131 132 548 0
131 -132 548 0
-131 -132 -548 0
133 134 -549 0
-133 134 549 0
133 -134 549 0
-133 -134 -549 0
135 136 -550 0
-135 136 550 0
135 -136 550 0
-135 -136 -550 0
137 138 -551 0
-137 138 551 0
137 -138 551 0
-137 -138 -551 0
139 140 -552 0
-139 140 552 0
139 -140 552 0
-139 -140 -552 0
141 142 -553 0
-141 142 553 0
141 -142 553 0
-141 -142 -553 0
143 144 -554 0
-143 144 554 0
143 -144 554 0
-143 -144 -554 0
145 146 -555 0
-145 146 555 0
145 -146 555 0
-145 -146 -555 0
147 148 -556 0
-147 148 556 0
147 -148 556 0
-147 -148 -556 0
149 150 -557 0
-149 150 557 0
149 -150 557 0
-149 -150 -557 0
151 152 -558 0
-151 152 558 0
151 -152 558 0
-151 -152 -558 0
153 154 -559 0
-153 154 559 0
153 -154 559 0
-153 -154 -559 0
155 156 -560 0
-155 156 560 0
155 -156 560 0
-155 -156 -560 0
157 158 -561 0
-157 158 561 0
157 -158 561 0
-157 -158 -561 0
159 160 -562 0
-159 160 562 0
159 -160 562 0
-159 -160 -562 0
161 162 -563 0
-161 162 563 0
161 -162 563 0
-161 -162 -563 0
163 164 -564 0
-163 164 564 0
163 -164 564 0
-163 -164 -564 0
165 166 -565 0
-165 166 565 0
165 -166 565 0
-165 -166 -565 0
167 168 -566 0
-167 168 566 0
167 -168 566 0
-167 -168 -566 0
169 170 -567 0
-169 170 567 0
169 -170 567 0
-169 -170 -567 0
171 172 -568 0
-171 172 568 0
171 -172 568 0
-171 -172 -568 0
173 174 -569 0
-173 174 569 0
173 -174 569 0
-173 -174 -569 0
175 176 -570 0
-175 176 570 0
175 -176 570 0
-175 -176 -570 0
177 178 -571 0
-177 178 571 0
177 -178 571 0
-177 -178 -571 0
179 180 -572 0
-179 180 572 0
179 -180 572 0
-179 -180 -572 0
181 182 -573 0
-181 182 573 0
181 -182 573 0
-181 -182 -573 0
183 184 -574 0
-183 184 574 0
183 -184 574 0
-183 -184 -574 0
185 186 -575 0
-185 186 575 0
185 -186 575 0
-185 -186 -575 0
187 188 -576 0
-187 188 576 0
187 -188 576 0
-187 -188 -576 0
189 190 -577 0
-189 190 577 0
189 -190 577 0
-189 -190 -577 0
191 192 -578 0
-191 192 578 0
191 -192 578 0
-191 -192 -578 0
193 194 -579 0
-193 194 579 0
193 -194 579 0
-193 -194 -579 0
195 196 -580 0
-195 196 580 0
195 -196 580 0
-195 -196 -580 0
197 198 -581 0
-197 198 581 0
197 -198 581 0
-197 -198 -581 0
199 200 -582 0
-199 200 582 0
199 -200 582 0
-199 -200 -582 0
201 202 -583 0
-201 202 583 0
201 -202 583 0
-201 -202 -583 0
203 204 -584 0
-203 204 584 0
203 -204 584 0
-203 -204 -584 0
205 206 -585 0
-205 206 585 0
205 -206 585 0
-205 -206 -585 0
207 208 -586 0
-207 208 586 0
207 -208 586 0
-207 -208 -586 0
209 210 -587 0
-209 210 587 0
209 -210 587 0
-209 -210 -587 0
211 212 -588 0
-211 212 588 0
211 -212 588 0
-211 -212 -588 0
213 214 -589 0
-213 214 589 0
213 -214 589 0
-213 -214 -589 0
215 216 -590 0
-215 216 590 0
215 -216 590 0
-215 -216 -590 0
217 218 -591 0
-217 218 591 0
217 -218 591 0
-217 -218 -591 0
219 220 -592 0
-219 220 592 0
219 -220 592 0
-219 -220 -592 0
221 222 -593 0
-221 222 593 0
221 -222 593 0
-221 -222 -593 0
223 224 -594 0
-223 224 594 0
223 -224 594 0
-223 -224 -594 0
225 226 -595 0
-225 226 595 0
225 -226 595 0
-225 -226 -595 0
227 228 -596 0
-227 228 596 0
227 -228 596 0
-227 -228 -596 0
229 230 -597 0
-229 230 597 0
229 -230 597 0
-229 -230 -597 0
231 232 -598 0
-231 232 598 0
231 -232 598 0
-231 -232 -598 0
233 234 -599 0
-233 234 599 0
233 -234 599 0
-233 -234 -599 0
235 236 -600 0
-235 236 600 0
235 -236 600 0
-235 -236 -600 0
237 238 -601 0
-237 238 601 0
237 -238 601 0
-237 -238 -601 0
239 240 -602 0
-239 240 602 0
239 -240 602 0
-239 -240 -602 0
241 242 -603 0
-241 242 603 0
241 -242 603 0
-241 -242 -603 0
243 244 -604 0
-243 244 604 0
243 -244 604 0
-243 -244 -604 0
245 246 -605 0
-245 246 605 0
245 -246 605 0
-245 -246 -605 0
247 248 -606 0
-247 248 606 0
247 -248 606 0
-247 -248 -606 0
249 250 -607 0
-249 250 607 0
249 -250 607 0
-249 -250 -607 0
251 252 -608 0
-251 252 608 0
251 -252 608 0
-251 -252 -608 0
253 254 -609 0
-253 254 609 0
253 -254 609 0
-253 -254 -609 0
255 256 -610 0
-255 256 610 0
255 -256 610 0
-255 -256 -610 0
257 258 -611 0
-257 258 611 0
257 -258 611 0
-257 -258 -611 0
259 260 -612 0
-259 260 612 0
259 -260 612 0
-259 -260 -612 0
261 262 -613 0
-261 262 613 0
261 -262 613 0
-261 -262 -613 0
263 264 -614 0
-263 264 614 0
263 -264 614 0
-263 -264 -614 0
265 266 -615 0
-265 266 615 0
265 -266 615 0
-265 -266 -615 0
267 268 -616 0
-267 268 616 0
267 -268 616 0
-267 -268 -616 0
269 270 -617 0
-269 270 617 0
269 -270 617 0
-269 -270 -617 0
271 272 -618 0
-271 272 618 0
271 -272 618 0
-271 -272 -618 0
273 274 -619 0
-273 274 619 0
273 -274 619 0
-273 -274 -619 0
275 276 -620 0
-275 276 620 0
275 -276 620 0
-275 -276 -620 0
277 278 -621 0
-277 278 621 0
277 -278 621 0
-277 -278 -621 0
279 280 -622 0
-279 280 622 0
279 -280 622 0
-279 -280 -622 0
281 282 -623 0
-281 282 623 0
281 -282 623 0
-281 -282 -623 0
283 284 -624 0
-283 284 624 0
283 -284 624 0
-283 -284 -624 0
285 286 -625 0
-285 286 625 0
285 -286 625 0
-285 -286 -625 0
287 288 -626 0
-287 288 626 0
287 -288 626 0
-287 -288 -626 0
289 290 -627 0
-289 290 627 0
289 -290 627 0
-289 -290 -627 0
291 292 -628 0
-291 292 628 0
291 -292 628 0
-291 -292 -628 0
293 294 -629 0
-293 294 629 0
293 -294 629 0
-293 -294 -629 0
295 296 -630 0
-295 296 630 0
295 -296 630 0
-295 -296 -630 0
297 298 -631 0
-297 298 631 0
297 -298 631 0
-297 -298 -631 0
299 300 -632 0
-299 300 632 0
299 -300 632 0
-299 -300 -632 0
301 302 -633 0
-301 302 633 0
301 -302 633 0
-301 -302 -633 0
303 304 -634 0
-303 304 634 0
303 -304 634 0
-303 -304 -634 0
305 306 -635 0
-305 306 635 0
305 -306 635 0
-305 -306 -635 0
307 308 -636 0
-307 308 636 0
307 -308 636 0
-307 -308 -636 0
309 310 -637 0
-309 310 637 0
309 -310 637 0
-309 -310 -637 0
311 312 -638 0
-311 312 638 0
311 -312 638 0
-311 -312 -638 0
313 314 -639 0
-313 314 639 0
313 -314 639 0
-313 -314 -639 0
315 316 -640 0
-315 316 640 0
315 -316 640 0
-315 -316 -640 0
317 318 -641 0
-317 318 641 0
317 -318 641 0
-317 -318 -641 0
319 320 -642 0
-319 320 642 0
319 -320 642 0
-319 -320 -642 0
321 322 -643 0
-321 322 643 0
321 -322 643 0
-321 -322 -643 0
323 324 -644 0
-323 324 644 0
323 -324 644 0
-323 -324 -644 0
325 326 -645 0
-325 326 645 0
325 -326 645 0
-325 -326 -645 0
327 328 -646 0
-327 328 646 0
327 -328 646 0
-327 -328 -646 0
329 330 -647 0
-329 330 647 0
329 -330 647 0
-329 -330 -647 0
331 332 -648 0
-331 332 648 0
331 -332 648 0
-331 -332 -648 0
333 334 -649 0
-333 334 649 0
333 -334 649 0
-333 -334 -649 0
335 336 -650 0
-335 336 650 0
335 -336 650 0
-335 -336 -650 0
337 338 -651 0
-337 338 651 0
337 -338 651 0
-337 -338 -651 0
339 340 -652 0
-339 340 652 0
339 -340 652 0
-339 -340 -652 0
341 342 -653 0
-341 342 653 0
341 -342 653 0
-341 -342 -653 0
343 344 -654 0
-343 344 654 0
343 -344 654 0
-343 -344 -654 0
345 346 -655 0
-345 346 655 0
345 -346 655 0
-345 -346 -655 0
347 348 -656 0
-347 348 656 0
347 -348 656 0
-347 -348 -656 0
349 350 -657 0
-349 350 657 0
349 -350 657 0
-349 -350 -657 0
351 352 -658 0
-351 352 658 0
351 -352 658 0
-351 -352 -658 0
353 354 -659 0
-353 354 659 0
353 -354 659 0
-353 -354 -659 0
355 356 -660 0
-355 356 660 0
355 -356 660 0
-355 -356 -660 0
357 358 -661 0
-357 358 661 0
357 -358 661 0
-357 -358 -661 0
359 360 -662 0
-359 360 662 0
359 -360 662 0
-359 -360 -662 0
361 362 -663 0
-361 362 663 0
361 -362 663 0
-361 -362 -663 0
363 364 -664 0
-363 364 664 0
363 -364 664 0
-363 -364 -664 0
365 366 -665 0
-365 366 665 0
365 -366 665 0
-365 -366 -665 0
367 368 -666 0
-367 368 666 0
367 -368 666 0
-367 -368 -666 0
369 370 -667 0
-369 370 667 0
369 -370 667 0
-369 -370 -667 0
371 372 -668 0
-371 372 668 0
371 -372 668 0
-371 -372 -668 0
373 374 -669 0
-373 374 669 0
373 -374 669 0
-373 -374 -669 0
375 376 -670 0
-375 376 670 0
375 -376 670 0
-375 -376 -670 0
377 378 -671 0
-377 378 671 0
377 -378 671 0
-377 -378 -671 0
379 380 -672 0
-379 380 672 0
379 -380 672 0
-379 -380 -672 0
381 382 -673 0
-381 382 673 0
381 -382 673 0
-381 -382 -673 0
383 384 -674 0
-383 384 674 0
383 -384 674 0
-383 -384 -674 0
385 386 -675 0
-385 386 675 0
385 -386 675 0
-385 -386 -675 0
387 388 -676 0
-387 388 676 0
387 -388 676 0
-387 -388 -676 0
389 390 -677 0
-389 390 677 0
389 -390 677 0
-389 -390 -677 0
391 392 -678 0
-391 392 678 0
391 -392 678 0
-391 -392 -678 0
393 394 -679 0
-393 394 679 0
393 -394 679 0
-393 -394 -679 0
395 396 -680 0
-395 396 680 0
395 -396 680 0
-395 -396 -680 0
397 398 -681 0
-397 398 681 0
397 -398 681 0
-397 -398 -681 0
399 400 -682 0
-399 400 682 0
399 -400 682 0
-399 -400 -682 0
401 402 -683 0
-401 402 683 0
401 -402 683 0
-401 -402 -683 0
403 404 -684 0
-403 404 684 0
403 -404 684 0
-403 -404 -684 0
405 406 -685 0
-405 406 685 0
405 -406 685 0
-405 -406 -685 0
407 408 -686 0
-407 408 686 0
407 -408 686 0
-407 -408 -686 0
409 410 -687 0
-409 410 687 0
409 -410 687 0
-409 -410 -687 0
411 412 -688 0
-411 412 688 0
411 -412 688 0
-411 -412 -688 0
413 414 -689 0
-413 414 689 0
413 -414 689 0
-413 -414 -689 0
415 416 -690 0
-415 416 690 0
415 -416 690 0
-415 -416 -690 0
417 418 -691 0
-417 418 691 0
417 -418 691 0
-417 -418 -691 0
419 420 -692 0
-419 420 692 0
419 -420 692 0
-419 -420 -692 0
421 422 -693 0
-421 422 693 0
421 -422 693 0
-421 -422 -693 0
423 424 -694 0
-423 424 694 0
423 -424 694 0
-423 -424 -694 0
425 426 -695 0
-425 426 695 0
425 -426 695 0
-425 -426 -695 0
427 428 -696 0
-427 428 696 0
427 -428 696 0
-427 -428 -696 0
429 430 -697 0
-429 430 697 0
429 -430 697 0
-429 -430 -697 0
431 432 -698 0
-431 432 698 0
431 -432 698 0
-431 -432 -698 0
433 434 -699 0
-433 434 699 0
433 -434 699 0
-433 -434 -699 0
435 436 -700 0
-435 436 700 0
435 -436 700 0
-435 -436 -700 0
437 438 -701 0
-437 438 701 0
437 -438 701 0
-437 -438 -701 0
439 440 -702 0
-439 440 702 0
439 -440 702 0
-439 -440 -702 0
441 442 -703 0
-441 442 703 0
441 -442 703 0
-441 -442 -703 0
443 444 -704 0
-443 444 704 0
443 -444 704 0
-443 -444 -704 0
445 446 -705 0
-445 446 705 0
445 -446 705 0
-445 -446 -705 0
447 448 -706 0
-447 448 706 0
447 -448 706 0
-447 -448 -706 0
449 450 -707 0
-449 450 707 0
449 -450 707 0
-449 -450 -707 0
451 452 -708 0
-451 452 708 0
451 -452 708 0
-451 -452 -708 0
453 454 -709 0
-453 454 709 0
453 -454 709 0
-453 -454 -709 0
455 456 -710 0
-455 456 710 0
455 -456 710 0
-455 -456 -710 0
457 458 -711 0
-457 458 711 0
457 -458 711 0
-457 -458 -711 0
459 460 -712 0
-459 460 712 0
459 -460 712 0
-459 -460 -712 0
461 462 -713 0
-461 462 713 0
461 -462 713 0
-461 -462 -713 0
463 464 -714 0
-463 464 714 0
463 -464 714 0
-463 -464 -714 0
465 466 -715 0
-465 466 715 0
465 -466 715 0
-465 -466 -715 0
467 468 -716 0
-467 468 716 0
467 -468 716 0
-467 -468 -716 0
469 470 -717 0
-469 470 717 0
469 -470 717 0
-469 -470 -717 0
471 472 -718 0
-471 472 718 0
471 -472 718 0
-471 -472 -718 0
473 474 -719 0
-473 474 719 0
473 -474 719 0
-473 -474 -719 0
475 476 -720 0
-475 476 720 0
475 -476 720 0
-475 -476 -720 0
477 478 -721 0
-477 478 721 0
477 -478 721 0
-477 -478 -721 0
483 484 -722 0
-483 484 722 0
483 -484 722 0
-483 -484 -722 0
485 486 -723 0
-485 486 723 0
485 -486 723 0
-485 -486 -723 0
487 488 -724 0
-487 488 724 0
487 -488 724 0
-487 -488 -724 0
489 490 -725 0
-489 490 725 0
489 -490 725 0
-489 -490 -725 0
491 492 -726 0
-491 492 726 0
491 -492 726 0
-491 -492 -726 0
493 494 -727 0
-493 494 727 0
493 -494 727 0
-493 -494 -727 0
495 496 -728 0
-495 496 728 0
495 -496 728 0
-495 -496 -728 0
497 498 -729 0
-497 498 729 0
497 -498 729 0
-497 -498 -729 0
499 500 -730 0
-499 500 730 0
499 -500 730 0
-499 -500 -730 0
501 502 -731 0
-501 502 731 0
501 -502 731 0
-501 -502 -731 0
503 504 -732 0
-503 504 732 0
503 -504 732 0
-503 -504 -732 0
505 506 -733 0
-505 506 733 0
505 -506 733 0
-505 -506 -733 0
507 508 -734 0
-507 508 734 0
507 -508 734 0
-507 -508 -734 0
509 510 -735 0
-509 510 735 0
509 -510 735 0
-509 -510 -735 0
511 512 -736 0
-511 512 736 0
511 -512 736 0
-511 -512 -736 0
513 514 -737 0
-513 514 737 0
513 -514 737 0
-513 -514 -737 0
515 516 -738 0
-515 516 738 0
515 -516 738 0
-515 -516 -738 0
517 518 -739 0
-517 518 739 0
517 -518 739 0
-517 -518 -739 0
519 520 -740 0
-519 520 740 0
519 -520 740 0
-519 -520 -740 0
521 522 -741 0
-521 522 741 0
521 -522 741 0
-521 -522 -741 0
523 524 -742 0
-523 524 742 0
523 -524 742 0
-523 -524 -742 0
525 526 -743 0
-525 526 743 0
525 -526 743 0
-525 -526 -743 0
527 528 -744 0
-527 528 744 0
527 -528 744 0
-527 -528 -744 0
529 530 -745 0
-529 530 745 0
529 -530 745 0
-529 -530 -745 0
531 532 -746 0
-531 532 746 0
531 -532 746 0
-531 -532 -746 0
533 534 -747 0
-533 534 747 0
533 -534 747 0
-533 -534 -747 0
535 536 -748 0
-535 536 748 0
535 -536 748 0
-535 -536 -748 0
537 538 -749 0
-537 538 749 0
537 -538 749 0
-537 -538 -749 0
539 540 -750 0
-539 540 750 0
539 -540 750 0
-539 -540 -750 0
541 542 -751 0
-541 542 751 0
541 -542 751 0
-541 -542 -751 0
543 544 -752 0
-543 544 752 0
543 -544 752 0
-543 -544 -752 0
545 546 -753 0
-545 546 753 0
545 -546 753 0
-545 -546 -753 0
547 548 -754 0
-547 548 754 0
547 -548 754 0
-547 -548 -754 0
549 550 -755 0
-549 550 755 0
549 -550 755 0
-549 -550 -755 0
551 552 -756 0
-551 552 756 0
551 -552 756 0
-551 -552 -756 0
553 554 -757 0
-553 554 757 0
553 -554 757 0
-553 -554 -757 0
555 556 -758 0
-555 556 758 0
555 -556 758 0
-555 -556 -758 0
557 558 -759 0
-557 558 759 0
557 -558 759 0
-557 -558 -759 0
559 560 -760 0
-559 560 760 0
559 -560 760 0
-559 -560 -760 0
561 562 -761 0
-561 562 761 0
561 -562 761 0
-561 -562 -761 0
563 564 -762 0
-563 564 762 0
563 -564 762 0
-563 -564 -762 0
565 566 -763 0
-565 566 763 0
565 -566 763 0
-565 -566 -763 0
567 568 -764 0
-567 568 764 0
567 -568 764 0
-567 -568 -764 0
569 570 -765 0
-569 570 765 0
569 -570 765 0
-569 -570 -765 0
571 572 -766 0
-571 572 766 0
571 -572 766 0
-571 -572 -766 0
573 574 -767 0
-573 574 767 0
573 -574 767 0
-573 -574 -767 0
575 576 -768 0
-575 576 768 0
575 -576 768 0
-575 -576 -768 0
577 578 -769 0
-577 578 769 0
577 -578 769 0
-577 -578 -769 0
579 580 -770 0
-579 580 770 0
579 -580 770 0
-579 -580 -770 0
581 582 -771 0
-581 582 771 0
581 -582 771 0
-581 -582 -771 0
583 584 -772 0
-583 584 772 0
583 -584 772 0
-583 -584 -772 0
585 586 -773 0
-585 586 773 0
585 -586 773 0
-585 -586 -773 0
587 588 -774 0
-587 588 774 0
587 -588 774 0
-587 -588 -774 0
589 590 -775 0
-589 590 775 0
589 -590 775 0
-589 -590 -775 0
591 592 -776 0
-591 592 776 0
591 -592 776 0
-591 -592 -776 0
593 594 -777 0
-593 594 777 0
593 -594 777 0
-593 -594 -777 0
595 596 -778 0
-595 596 778 0
595 -596 778 0
-595 -596 -778 0
597 598 -779 0
-597 598 779 0
597 -598 779 0
-597 -598 -779 0
599 600 -780 0
-599 600 780 0
599 -600 780 0
-599 -600 -780 0
601 602 -781 0
-601 602 781 0
601 -602 781 0
-601 -602 -781 0
603 604 -782 0
-603 604 782 0
603 -604 782 0
-603 -604 -782 0
605 606 -783 0
-605 606 783 0
605 -606 783 0
-605 -606 -783 0
607 608 -784 0
-607 608 784 0
607 -608 784 0
-607 -608 -784 0
609 610 -785 0
-609 610 785 0
609 -610 785 0
-609 -610 -785 0
611 612 -786 0
-611 612 786 0
611 -612 786 0
-611 -612 -786 0
613 614 -787 0
-613 614 787 0
613 -614 787 0
-613 -614 -787 0
615 616 -788 0
-615 616 788 0
615 -616 788 0
-615 -616 -788 0
617 618 -789 0
-617 618 789 0
617 -618 789 0
-617 -618 -789 0
619 620 -790 0
-619 620 790 0
619 -620 790 0
-619 -620 -790 0
621 622 -791 0
-621 622 791 0
621 -622 791 0
-621 -622 -791 0
623 624 -792 0
-623 624 792 0
623 -624 792 0
-623 -624 -792 0
625 626 -793 0
-625 626 793 0
625 -626 793 0
-625 -626 -793 0
627 628 -794 0
-627 628 794 0
627 -628 794 0
-627 -628 -794 0
629 630 -795 0
-629 630 795 0
629 -630 795 0
-629 -630 -795 0
631 632 -796 0
-631 632 796 0
631 -632 796 0
-631 -632 -796 0
633 634 -797 0
-633 634 797 0
633 -634 797 0
-633 -634 -797 0
635 636 -798 0
-635 636 798 0
635 -636 798 0
-635 -636 -798 0
637 638 -799 0
-637 638 799 0
637 -638 799 0
-637 -638 -799 0
639 640 -800 0
-639 640 800 0
639 -640 800 0
-639 -640 -800 0
641 642 -801 0
-641 642 801 0
641 -642 801 0
-641 -642 -801 0
643 644 -802 0
-643 644 802 0
643 -644 802 0
-643 -644 -802 0
645 646 -803 0
-645 646 803 0
645 -646 803 0
-645 -646 -803 0
647 648 -804 0
-647 648 804 0
647 -648 804 0
-647 -648 -804 0
649 650 -805 0
-649 650 805 0
649 -650 805 0
-649 -650 -805 0
651 652 -806 0
-651 652 806 0
651 -652 806 0
-651 -652 -806 0
653 654 -807 0
-653 654 807 0
653 -654 807 0
-653 -654 -807 0
655 656 -808 0
-655 656 808 0
655 -656 808 0
-655 -656 -808 0
657 658 -809 0
-657 658 809 0
657 -658 809 0
-657 -658 -809 0
659 660 -810 0
-659 660 810 0
659 -660 810 0
-659 -660 -810 0
661 662 -811 0
-661 662 811 0
661 -662 811 0
-661 -662 -811 0
663 664 -812 0
-663 664 812 0
663 -664 812 0
-663 -664 -812 0
665 666 -813 0
-665 666 813 0
665 -666 813 0
-665 -666 -813 0
667 668 -814 0
-667 668 814 0
667 -668 814 0
-667 -668 -814 0
669 670 -815 0
-669 670 815 0
669 -670 815 0
-669 -670 -815 0
671 672 -816 0
-671 672 816 0
671 -672 816 0
-671 -672 -816 0
673 674 -817 0
-673 674 817 0
673 -674 817 0
-673 -674 -817 0
675 676 -818 0
-675 676 818 0
675 -676 818 0
-675 -676 -818 0
677 678 -819 0
-677 678 819 0
677 -678 819 0
-677 -678 -819 0
679 680 -820 0
-679 680 820 0
679 -680 820 0
-679 -680 -820 0
681 682 -821 0
-681 682 821 0
681 -682 821 0
-681 -682 -821 0
683 684 -822 0
-683 684 822 0
683 -684 822 0
-683 -684 -822 0
685 686 -823 0
-685 686 823 0
685 -686 823 0
-685 -686 -823 0
687 688 -824 0
-687 688 824 0
687 -688 824 0
-687 -688 -824 0
689 690 -825 0
-689 690 825 0
689 -690 825 0
-689 -690 -825 0
691 692 -826 0
-691 692 826 0
691 -692 826 0
-691 -692 -826 0
693 694 -827 0
-693 694 827 0
693 -694 827 0
-693 -694 -827 0
695 696 -828 0
-695 696 828 0
695 -696 828 0
-695 -696 -828 0
697 698 -829 0
-697 698 829 0
697 -698 829 0
-697 -698 -829 0
699 700 -830 0
-699 700 830 0
699 -700 830 0
-699 -700 -830 0
701 702 -831 0
-701 702 831 0
701 -702 831 0
-701 -702 -831 0
703 704 -832 0
-703 704 832 0
703 -704 832 0
-703 -704 -832 0
705 706 -833 0
-705 706 833 0
705 -706 833 0
-705 -706 -833 0
707 708 -834 0
-707 708 834 0
707 -708 834 0
-707 -708 -834 0
709 710 -835 0
-709 710 835 0
709 -710 835 0
-709 -710 -835 0
711 712 -836 0
-711 712 836 0
711 -712 836 0
-711 -712 -836 0
713 714 -837 0
-713 714 837 0
713 -714 837 0
-713 -714 -837 0
715 716 -838 0
-715 716 838 0
715 -716 838 0
-715 -716 -838 0
717 718 -839 0
-717 718 839 0
717 -718 839 0
-717 -718 -839 0
719 720 -840 0
-719 720 840 0
719 -720 840 0
-719 -720 -840 0
721 479 -841 0
-721 479 841 0
721 -479 841 0
-721 -479 -841 0
722 723 -842 0
-722 723 842 0
722 -723 842 0
-722 -723 -842 0
724 725 -843 0
-724 725 843 0
724 -725 843 0
-724 -725 -843 0
726 727 -844 0
-726 727 844 0
726 -727 844 0
-726 -727 -844 0
728 729 -845 0
-728 729 845 0
728 -729 845 0
-728 -729 -845 0
730 731 -846 0
-730 731 846 0
730 -731 846 0
-730 -731 -846 0
732 733 -847 0
-732 733 847 0
732 -733 847 0
-732 -733 -847 0
734 735 -848 0
-734 735 848 0
734 -735 848 0
-734 -735 -848 0
736 737 -849 0
-736 737 849 0
736 -737 849 0
-736 -737 -849 0
738 739 -850 0
-738 739 850 0
738 -739 850 0
-738 -739 -850 0
740 741 -851 0
-740 741 851 0
740 -741 851 0
-740 -741 -851 0
742 743 -852 0
-742 743 852 0
742 -743 852 0
-742 -743 -852 0
744 745 -853 0
-744 745 853 0
744 -745 853 0
-744 -745 -853 0
746 747 -854 0
-746 747 854 0
746 -747 854 0
-746 -747 -854 0
748 749 -855 0
-748 749 855 0
748 -749 855 0
-748 -749 -855 0
750 751 -856 0
-750 751 856 0
750 -751 856 0
-750 -751 -856 0
752 753 -857 0
-752 753 857 0
752 -753 857 0
-752 -753 -857 0
754 755 -858 0
-754 755 858 0
754 -755 858 0
-754 -755 -858 0
756 757 -859 0
-756 757 859 0
756 -757 859 0
-756 -757 -859 0
758 759 -860 0
-758 759 860 0
758 -759 860 0
-758 -759 -860 0
760 761 -861 0
-760 761 861 0
760 -761 861 0
-760 -761 -861 0
762 763 -862 0
-762 763 862 0
762 -763 862 0
-762 -763 -862 0
764 765 -863 0
-764 765 863 0
764 -765 863 0
-764 -765 -863 0
766 767 -864 0
-766 767 864 0
766 -767 864 0
-766 -767 -864 0
768 769 -865 0
-768 769 865 0
768 -769 865 0
-768 -769 -865 0
770 771 -866 0
-770 771 866 0
770 -771 866 0
-770 -771 -866 0
772 773 -867 0
-772 773 867 0
772 -773 867 0
-772 -773 -867 0
774 775 -868 0
-774 775 868 0
774 -775 868 0
-774 -775 -868 0
776 777 -869 0
-776 777 869 0
776 -777 869 0
-776 -777 -869 0
778 779 -870 0
-778 779 870 0
778 -779 870 0
-778 -779 -870 0
780 781 -871 0
-780 781 871 0
780 -781 871 0
-780 -781 -871 0
782 783 -872 0
-782 783 872 0
782 -783 872 0
-782 -783 -872 0
784 785 -873 0
-784 785 873 0
784 -785 873 0
-784 -785 -873 0
786 787 -874 0
-786 787 874 0
786 -787 874 0
-786 -787 -874 0
788 789 -875 0
-788 789 875 0
788 -789 875 0
-788 -789 -875 0
790 791 -876 0
-790 791 876 0
790 -791 876 0
-790 -791 -876 0
792 793 -877 0
-792 793 877 0
792 -793 877 0
-792 -793 -877 0
794 795 -878 0
-794 795 878 0
794 -795 878 0
-794 -795 -878 0
796 797 -879 0
-796 797 879 0
796 -797 879 0
-796 -797 -879 0
798 799 -880 0
-798 799 880 0
798 -799 880 0
-798 -799 -880 0
800 801 -881 0
-800 801 881 0
800 -801 881 0
-800 -801 -881 0
802 803 -882 0
-802 803 882 0
802 -803 882 0
-802 -803 -882 0
804 805 -883 0
-804 805 883 0
804 -805 883 0
-804 -805 -883 0
806 807 -884 0
-806 807 884 0
806 -807 884 0
-806 -807 -884 0
808 809 -885 0
-808 809 885 0
808 -809 885 0
-808 -809 -885 0
810 811 -886 0
-810 811 886 0
810 -811 886 0
-810 -811 -886 0
812 813 -887 0
-812 813 887 0
812 -813 887 0
-812 -813 -887 0
814 815 -888 0
-814 815 888 0
814 -815 888 0
-814 -815 -888 0
816 817 -889 0
-816 817 889 0
816 -817 889 0
-816 -817 -889 0
818 819 -890 0
-818 819 890 0
818 -819 890 0
-818 -819 -890 0
820 821 -891 0
-820 821 891 0
820 -821 891 0
-820 -821 -891 0
822 823 -892 0
-822 823 892 0
822 -823 892 0
-822 -823 -892 0
824 825 -893 0
-824 825 893 0
824 -825 893 0
-824 -825 -893 0
826 827 -894 0
-826 827 894 0
826 -827 894 0
-826 -827 -894 0
828 829 -895 0
-828 829 895 0
828 -829 895 0
-828 -829 -895 0
830 831 -896 0
-830 831 896 0
830 -831 896 0
-830 -831 -896 0
832 833 -897 0
-832 833 897 0
832 -833 897 0
-832 -833 -897 0
834 835 -898 0
-834 835 898 0
834 -835 898 0
-834 -835 -898 0
836 837 -899 0
-836 837 899 0
836 -837 899 0
-836 -837 -899 0
838 839 -900 0
-838 839 900 0
838 -839 900 0
-838 -839 -900 0
840 841 -901 0
-840 841 901 0
840 -841 901 0
-840 -841 -901 0
842 843 -902 0
-842 843 902 0
842 -843 902 0
-842 -843 -902 0
844 845 -903 0
-844 845 903 0
844 -845 903 0
-844 -845 -903 0
846 847 -904 0
-846 847 904 0
846 -847 904 0
-846 -847 -904 0
848 849 -905 0
-848 849 905 0
848 -849 905 0
-848 -849 -905 0
850 851 -906 0
-850 851 906 0
850 -851 906 0
-850 -851 -906 0
852 853 -907 0
-852 853 907 0
852 -853 907 0
-852 -853 -907 0
854 855 -908 0
-854 855 908 0
854 -855 908 0
-854 -855 -908 0
856 857 -909 0
-856 857 909 0
856 -857 909 0
-856 -857 -909 0
858 859 -910 0
-858 859 910 0
858 -859 910 0
-858 -859 -910 0
860 861 -911 0
-860 861 911 0
860 -861 911 0
-860 -861 -911 0
862 863 -912 0
-862 863 912 0
862 -863 912 0
-862 -863 -912 0
864 865 -913 0
-864 865 913 0
864 -865 913 0
-864 -865 -913 0
866 867 -914 0
-866 867 914 0
866 -867 914 0
-866 -867 -914 0
868 869 -915 0
-868 869 915 0
868 -869 915 0
-868 -869 -915 0
870 871 -916 0
-870 871 916 0
870 -871 916 0
-870 -871 -916 0
872 873 -917 0
-872 873 917 0
872 -873 917 0
-872 -873 -917 0
874 875 -918 0
-874 875 918 0
874 -875 918 0
-874 -875 -918 0
876 877 -919 0
-876 877 919 0
876 -877 919 0
-876 -877 -919 0
878 879 -920 0
-878 879 920 0
878 -879 920 0
-878 -879 -920 0
880 881 -921 0
-880 881 921 0
880 -881 921 0
-880 -881 -921 0
882 883 -922 0
-882 883 922 0
882 -883 922 0
-882 -883 -922 0
884 885 -923 0
-884 885 923 0
884 -885 923 0
-884 -885 -923 0
886 887 -924 0
-886 887 924 0
886 -887 924 0
-886 -887 -924 0
888 889 -925 0
-888 889 925 0
888 -889 925 0
-888 -889 -925 0
890 891 -926 0
-890 891 926 0
890 -891 926 0
-890 -891 -926 0
892 893 -927 0
-892 893 927 0
892 -893 927 0
-892 -893 -927 0
894 895 -928 0
-894 895 928 0
894 -895 928 0
-894 -895 -928 0
896 897 -929 0
-896 897 929 0
896 -897 929 0
-896 -897 -929 0
898 899 -930 0
-898 899 930 0
898 -899 930 0
-898 -899 -930 0
900 901 -931 0
-900 901 931 0
900 -901 931 0
-900 -901 -931 0
902 903 -932 0
-902 903 932 0
902 -903 932 0
-902 -903 -932 0
904 905 -933 0
-904 905 933 0
904 -905 933 0
-904 -905 -933 0
906 907 -934 0
-906 907 934 0
906 -907 934 0
-906 -907 -934 0
908 909 -935 0
-908 909 935 0
908 -909 935 0
-908 -909 -935 0
910 911 -936 0
-910 911 936 0
910 -911 936 0
-910 -911 -936 0
912 913 -937 0
-912 913 937 0
912 -913 937 0
-912 -913 -937 0
914 915 -938 0
-914 915 938 0
914 -915 938 0
-914 -915 -938 0
916 917 -939 0
-916 917 939 0
916 -917 939 0
-916 -917 -939 0
918 919 -940 0
-918 919 940 0
918 -919 940 0
-918 -919 -940 0
920 921 -941 0
-920 921 941 0
920 -921 941 0
-920 -921 -941 0
922 923 -942 0
-922 923 942 0
922 -923 942 0
-922 -923 -942 0
924 925 -943 0
-924 925 943 0
924 -925 943 0
-924 -925 -943 0
926 927 -944 0
-926 927 944 0
926 -927 944 0
-926 -927 -944 0
928 929 -945 0
-928 929 945 0
928 -929 945 0
-928 -929 -945 0
930 931 -946 0
-930 931 946 0
930 -931 946 0
-930 -931 -946 0
932 933 -947 0
-932 933 947 0
932 -933 947 0
-932 -933 -947 0
934 935 -948 0
-934 935 948 0
934 -935 948 0
-934 -935 -948 0
936 937 -949 0
-936 937 949 0
936 -937 949 0
-936 -937 -949 0
938 939 -950 0
-938 939 950 0
938 -939 950 0
-938 -939 -950 0
940 941 -951 0
-940 941 951 0
940 -941 951 0
-940 -941 -951 0
942 943 -952 0
-942 943 952 0
942 -943 952 0
-942 -943 -952 0
944 945 -953 0
-944 945 953 0
944 -945 953 0
-944 -945 -953 0
947 948 -954 0
-947 948 954 0
947 -948 954 0
-947 -948 -954 0
949 950 -955 0
-949 950 955 0
949 -950 955 0
-949 -950 -955 0
951 952 -956 0
-951 952 956 0
951 -952 956 0
-951 -952 -956 0
953 946 -957 0
-953 946 957 0
953 -946 957 0
-953 -946 -957 0
954 955 -958 0
-954 955 958 0
954 -955 958 0
-954 -955 -958 0
956 957 -959 0
-956 957 959 0
956 -957 959 0
-956 -957 -959 0
958 959 -480 0
-958 959 480 0
958 -959 480 0
-958 -959 -480 0
